\ENCODING=ISO-8859-1
\Problem name: ilog.cplex

Minimize
 obj1: 107745 x1 + 91151 x2 + 103449 x3 + 103904 x4 + 104978 x5 + 100994 x6
       + 101553 x7 + 92459 x8 + 96597 x9 + 109314 x10 + 108669 x11 + 97353 x12
       + 91708 x13 + 102130 x14 + 95393 x15 + 107224 x16 + 95320 x17
       + 91710 x18 + 102368 x19 + 103856 x20 + 108641 x21 + 96085 x22
       + 96509 x23 + 108519 x24 + 100748 x25 + 95077 x26 + 109977 x27
       + 105221 x28 + 91321 x29 + 96745 x30 + 105586 x31 + 99150 x32
       + 93556 x33 + 104529 x34 + 107079 x35 + 102793 x36 + 91396 x37
       + 92461 x38 + 92997 x39 + 107108 x40 + 105826 x41 + 93458 x42
       + 98869 x43 + 90585 x44 + 101299 x45 + 104054 x46 + 103979 x47
       + 105181 x48 + 95206 x49 + 107791 x50 + 99108 x51 + 91389 x52
       + 109514 x53 + 97601 x54 + 109696 x55 + 91580 x56 + 96212 x57
       + 100331 x58 + 100105 x59 + 101747 x60 + 95960 x61 + 95354 x62
       + 100812 x63 + 102800 x64 + 96357 x65 + 99192 x66 + 109014 x67
       + 105260 x68 + 98041 x69 + 102868 x70 + 90078 x71 + 98286 x72
       + 94466 x73 + 105333 x74 + 95887 x75 + 105534 x76 + 95347 x77
       + 96631 x78 + 96242 x79 + 101477 x80 + 105879 x81 + 103919 x82
       + 104043 x83 + 109685 x84 + 106209 x85 + 101580 x86 + 100123 x87
       + 97985 x88 + 98612 x89 + 90483 x90 + 109437 x91 + 104536 x92
       + 103463 x93 + 90773 x94 + 106716 x95 + 93536 x96 + 109296 x97
       + 107668 x98 + 96760 x99 + 109618 x100 + 95954 x101 + 104831 x102
       + 90075 x103 + 99886 x104 + 102668 x105 + 92942 x106 + 106488 x107
       + 95954 x108 + 99355 x109 + 101080 x110 + 106669 x111 + 99210 x112
       + 98339 x113 + 100200 x114 + 97057 x115 + 102616 x116 + 93784 x117
       + 94935 x118 + 95204 x119 + 93473 x120 + 105805 x121 + 108383 x122
       + 93667 x123 + 104323 x124 + 108484 x125 + 91081 x126 + 108106 x127
       + 108654 x128 + 95990 x129 + 95733 x130 + 107328 x131 + 98144 x132
       + 101994 x133 + 109786 x134 + 94281 x135 + 91496 x136 + 94101 x137
       + 99013 x138 + 93912 x139 + 98845 x140 + 97299 x141 + 107047 x142
       + 106296 x143 + 100254 x144 + 98181 x145 + 98139 x146 + 101624 x147
       + 92013 x148 + 105216 x149 + 103417 x150 + 94538 x151 + 107402 x152
       + 97661 x153 + 104230 x154 + 102847 x155 + 97693 x156 + 96711 x157
       + 104677 x158 + 107050 x159 + 104196 x160 + 109350 x161 + 109975 x162
       + 107859 x163 + 104380 x164 + 102801 x165 + 107645 x166 + 94213 x167
       + 106080 x168 + 98947 x169 + 92571 x170 + 102396 x171 + 104724 x172
       + 104858 x173 + 98164 x174 + 96752 x175 + 103150 x176 + 102067 x177
       + 105023 x178 + 98663 x179 + 97012 x180 + 92981 x181 + 106572 x182
       + 99104 x183 + 103167 x184 + 104286 x185 + 90865 x186 + 109288 x187
       + 98449 x188 + 109209 x189 + 103094 x190 + 93805 x191 + 101880 x192
       + 93214 x193 + 104278 x194 + 91140 x195 + 94639 x196 + 90985 x197
       + 98199 x198 + 97563 x199 + 109012 x200 + 90050 x201 + 92452 x202
       + 94603 x203 + 92860 x204 + 101827 x205 + 90776 x206 + 102315 x207
       + 97287 x208 + 93933 x209 + 101184 x210 + 96611 x211 + 93892 x212
       + 103263 x213 + 91867 x214 + 103093 x215 + 95552 x216 + 101150 x217
       + 92903 x218 + 107515 x219 + 100686 x220 + 106565 x221 + 100922 x222
       + 92459 x223 + 93429 x224 + 92351 x225 + 91785 x226 + 90733 x227
       + 90226 x228 + 93371 x229 + 106970 x230 + 109930 x231 + 107003 x232
       + 102962 x233 + 108913 x234 + 95414 x235 + 98398 x236 + 97220 x237
       + 90717 x238 + 97435 x239 + 108558 x240 + 95444 x241 + 96465 x242
       + 92193 x243 + 91609 x244 + 109416 x245 + 99761 x246 + 96347 x247
       + 109135 x248 + 94257 x249 + 100222 x250 + 90277 x251 + 102612 x252
       + 103378 x253 + 108000 x254 + 97953 x255 + 108275 x256 + 104275 x257
       + 105267 x258 + 105255 x259 + 98162 x260 + 107976 x261 + 108172 x262
       + 96276 x263 + 109351 x264 + 100436 x265 + 100324 x266 + 104379 x267
       + 101819 x268 + 90048 x269 + 99007 x270 + 103567 x271 + 109935 x272
       + 97135 x273 + 96068 x274 + 105605 x275 + 107903 x276 + 106776 x277
       + 97838 x278 + 101486 x279 + 109170 x280 + 93598 x281 + 100108 x282
       + 103533 x283 + 105735 x284 + 102637 x285 + 90446 x286 + 102709 x287
       + 104906 x288 + 96463 x289 + 102051 x290 + 94646 x291 + 98240 x292
       + 95552 x293 + 90838 x294 + 107445 x295 + 100245 x296 + 106195 x297
       + 90607 x298 + 104492 x299 + 102864 x300 + 105874 x301 + 103789 x302
       + 108682 x303 + 96888 x304 + 102993 x305 + 106349 x306 + 102497 x307
       + 102105 x308 + 108877 x309 + 101578 x310 + 108417 x311 + 90229 x312
       + 103087 x313 + 108998 x314 + 107093 x315 + 108200 x316 + 103740 x317
       + 106991 x318 + 93124 x319 + 90967 x320 + 105728 x321 + 104196 x322
       + 97991 x323 + 105892 x324 + 106242 x325 + 93072 x326 + 98067 x327
       + 99359 x328 + 93787 x329 + 104335 x330 + 93987 x331 + 108518 x332
       + 95952 x333 + 94597 x334 + 107044 x335 + 107541 x336 + 105917 x337
       + 103764 x338 + 93297 x339 + 104791 x340 + 98009 x341 + 93623 x342
       + 106732 x343 + 95018 x344 + 98559 x345 + 104541 x346 + 109070 x347
       + 98956 x348 + 99919 x349 + 103281 x350 + 101731 x351 + 104959 x352
       + 90369 x353 + 104044 x354 + 103653 x355 + 90277 x356 + 103192 x357
       + 108491 x358 + 104575 x359 + 105205 x360 + 90042 x361 + 101505 x362
       + 108566 x363 + 93560 x364 + 99513 x365 + 96155 x366 + 94852 x367
       + 98690 x368 + 96763 x369 + 98194 x370 + 107112 x371 + 100623 x372
       + 90502 x373 + 96031 x374 + 108773 x375 + 101405 x376 + 100348 x377
       + 108597 x378 + 108739 x379 + 95767 x380 + 99806 x381 + 106303 x382
       + 93726 x383 + 106796 x384 + 104614 x385 + 98141 x386 + 105738 x387
       + 104443 x388 + 91440 x389 + 101425 x390 + 96210 x391 + 98429 x392
       + 107650 x393 + 99753 x394 + 91950 x395 + 106562 x396 + 109358 x397
       + 109486 x398 + 102269 x399 + 104437 x400 + 103189 x401 + 95061 x402
       + 101738 x403 + 96781 x404 + 98200 x405 + 102045 x406 + 97930 x407
       + 96533 x408 + 103571 x409 + 93325 x410 + 92473 x411 + 92894 x412
       + 94705 x413 + 92060 x414 + 95056 x415 + 97358 x416 + 104447 x417
       + 101123 x418 + 92451 x419 + 107978 x420 + 97052 x421 + 91018 x422
       + 99287 x423 + 94519 x424 + 98602 x425 + 99813 x426 + 104094 x427
       + 107385 x428 + 92539 x429 + 98226 x430 + 96405 x431 + 105937 x432
       + 94612 x433 + 95687 x434 + 91636 x435 + 102369 x436 + 102807 x437
       + 106469 x438 + 107065 x439 + 108357 x440 + 94737 x441 + 98943 x442
       + 104445 x443 + 93484 x444 + 97465 x445 + 95537 x446 + 102580 x447
       + 96794 x448 + 102905 x449 + 96163 x450 + 103681 x451 + 100555 x452
       + 90833 x453 + 99759 x454 + 96383 x455 + 91687 x456 + 107178 x457
       + 105161 x458 + 99556 x459 + 91073 x460 + 91592 x461 + 106703 x462
       + 95816 x463 + 103758 x464 + 106209 x465 + 93007 x466 + 102254 x467
       + 109127 x468 + 98200 x469 + 105903 x470 + 91327 x471 + 96415 x472
       + 90680 x473 + 107857 x474 + 101984 x475 + 94008 x476 + 97599 x477
       + 108211 x478 + 97718 x479 + 99467 x480 + 93356 x481 + 97809 x482
       + 98987 x483 + 101354 x484 + 106506 x485 + 105936 x486 + 108922 x487
       + 93608 x488 + 96132 x489 + 93555 x490 + 103266 x491 + 98550 x492
       + 109366 x493 + 92453 x494 + 108160 x495 + 95585 x496 + 108979 x497
       + 91180 x498 + 102706 x499 - 39918 x500 + 39931 x501 + 38638 x502
       + 37421 x503 + 40953 x504 + 37855 x505 + 42121 x506 + 37395 x507
       + 37741 x508 + 40772 x509 + 37404 x510 + 41419 x511 + 39954 x512
       + 42467 x513 + 36442 x514 + 43894 x515 + 42048 x516 + 39690 x517
       + 40789 x518 + 37407 x519 + 43294 x520 + 42298 x521 + 43865 x522
       + 39351 x523 + 39101 x524 + 37127 x525 + 36881 x526 + 38110 x527
       + 39008 x528 + 40136 x529 + 40189 x530 + 41967 x531 + 40707 x532
       + 42806 x533 + 41716 x534 + 42707 x535 + 39708 x536 + 38964 x537
       + 38728 x538 + 39486 x539 + 43279 x540 + 39145 x541 + 36621 x542
       + 42831 x543 + 37045 x544 + 41329 x545 + 42505 x546 + 41713 x547
       + 43129 x548 + 41280 x549 + 30633 x550
Subject To
 c1:   - x9 + x11 - x25 + x31 - x46 + x49  = 0
 c2:   - x59 + x61 - x75 + x81 - x96 + x99  = 0
 c3:   - x109 + x111 - x125 + x131 - x146 + x149  = 0
 c4:   - x159 + x161 - x175 + x181 - x196 + x199  = 1
 c5:   - x209 + x211 - x225 + x231 - x246 + x249  = 0
 c6:   - x259 + x261 - x275 + x281 - x296 + x299  = 0
 c7:   - x309 + x311 - x325 + x331 - x346 + x349  = 0
 c8:   - x359 + x361 - x375 + x381 - x396 + x399  = 0
 c9:   - x409 + x411 - x425 + x431 - x446 + x449  = 0
 c10:  - x459 + x461 - x475 + x481 - x496 + x499  = 0
 c11:  - x7 - x17 + x21 + x24 + x29 - x33 - x50  = -1
 c12:  - x57 - x67 + x71 + x74 + x79 - x83 - x100  = 0
 c13:  - x107 - x117 + x121 + x124 + x129 - x133 - x150  = 0
 c14:  - x157 - x167 + x171 + x174 + x179 - x183 - x200  = 0
 c15:  - x207 - x217 + x221 + x224 + x229 - x233 - x250  = -1
 c16:  - x257 - x267 + x271 + x274 + x279 - x283 - x300  = 1
 c17:  - x307 - x317 + x321 + x324 + x329 - x333 - x350  = 0
 c18:  - x357 - x367 + x371 + x374 + x379 - x383 - x400  = 1
 c19:  - x407 - x417 + x421 + x424 + x429 - x433 - x450  = 0
 c20:  - x457 - x467 + x471 + x474 + x479 - x483 - x500  = 0
 c21:  x3 + x19 - x34 - x38 + x40 - x44  = 0
 c22:  x53 + x69 - x84 - x88 + x90 - x94  = 0
 c23:  x103 + x119 - x134 - x138 + x140 - x144  = 0
 c24:  x153 + x169 - x184 - x188 + x190 - x194  = 0
 c25:  x203 + x219 - x234 - x238 + x240 - x244  = 0
 c26:  x253 + x269 - x284 - x288 + x290 - x294  = 0
 c27:  x303 + x319 - x334 - x338 + x340 - x344  = 0
 c28:  x353 + x369 - x384 - x388 + x390 - x394  = -1
 c29:  x403 + x419 - x434 - x438 + x440 - x444  = 0
 c30:  x453 + x469 - x484 - x488 + x490 - x494  = 0
 c31:  - x4 - x5 + x13 - x15 + x20 - x23 + x25 + x38 - x41 + x47 - x49  = 0
 c32:  - x54 - x55 + x63 - x65 + x70 - x73 + x75 + x88 - x91 + x97 - x99  = 1
 c33:  - x104 - x105 + x113 - x115 + x120 - x123 + x125 + x138 - x141 + x147
       - x149  = 0
 c34:  - x154 - x155 + x163 - x165 + x170 - x173 + x175 + x188 - x191 + x197
       - x199  = 0
 c35:  - x204 - x205 + x213 - x215 + x220 - x223 + x225 + x238 - x241 + x247
       - x249  = 0
 c36:  - x254 - x255 + x263 - x265 + x270 - x273 + x275 + x288 - x291 + x297
       - x299  = 0
 c37:  - x304 - x305 + x313 - x315 + x320 - x323 + x325 + x338 - x341 + x347
       - x349  = 0
 c38:  - x354 - x355 + x363 - x365 + x370 - x373 + x375 + x388 - x391 + x397
       - x399  = 0
 c39:  - x404 - x405 + x413 - x415 + x420 - x423 + x425 + x438 - x441 + x447
       - x449  = 0
 c40:  - x454 - x455 + x463 - x465 + x470 - x473 + x475 + x488 - x491 + x497
       - x499  = 0
 c41:  x8 - x12 - x14 - x22 + x23 + x26 - x31  = 0
 c42:  x58 - x62 - x64 - x72 + x73 + x76 - x81  = 0
 c43:  x108 - x112 - x114 - x122 + x123 + x126 - x131  = 0
 c44:  x158 - x162 - x164 - x172 + x173 + x176 - x181  = 0
 c45:  x208 - x212 - x214 - x222 + x223 + x226 - x231  = 0
 c46:  x258 - x262 - x264 - x272 + x273 + x276 - x281  = 0
 c47:  x308 - x312 - x314 - x322 + x323 + x326 - x331  = -1
 c48:  x358 - x362 - x364 - x372 + x373 + x376 - x381  = 0
 c49:  x408 - x412 - x414 - x422 + x423 + x426 - x431  = 1
 c50:  x458 - x462 - x464 - x472 + x473 + x476 - x481  = 1
 c51:  - x1 + x4 + x28 + x36 - x45  = 0
 c52:  - x51 + x54 + x78 + x86 - x95  = 0
 c53:  - x101 + x104 + x128 + x136 - x145  = 0
 c54:  - x151 + x154 + x178 + x186 - x195  = 0
 c55:  - x201 + x204 + x228 + x236 - x245  = 0
 c56:  - x251 + x254 + x278 + x286 - x295  = 0
 c57:  - x301 + x304 + x328 + x336 - x345  = 0
 c58:  - x351 + x354 + x378 + x386 - x395  = 0
 c59:  - x401 + x404 + x428 + x436 - x445  = 0
 c60:  - x451 + x454 + x478 + x486 - x495  = 0
 c61:  x2 + x5 + x6 + x7 - x18 + x30 - x39 + x44 + x46 - x48  = 0
 c62:  x52 + x55 + x56 + x57 - x68 + x80 - x89 + x94 + x96 - x98  = 0
 c63:  x102 + x105 + x106 + x107 - x118 + x130 - x139 + x144 + x146 - x148  = 0
 c64:  x152 + x155 + x156 + x157 - x168 + x180 - x189 + x194 + x196 - x198  = 0
 c65:  x202 + x205 + x206 + x207 - x218 + x230 - x239 + x244 + x246 - x248  = 0
 c66:  x252 + x255 + x256 + x257 - x268 + x280 - x289 + x294 + x296 - x298  = 0
 c67:  x302 + x305 + x306 + x307 - x318 + x330 - x339 + x344 + x346 - x348  = 0
 c68:  x352 + x355 + x356 + x357 - x368 + x380 - x389 + x394 + x396 - x398  = 0
 c69:  x402 + x405 + x406 + x407 - x418 + x430 - x439 + x444 + x446 - x448  = 0
 c70:  x452 + x455 + x456 + x457 - x468 + x480 - x489 + x494 + x496 - x498  = 0
 c71:  x10 + x18 + x34 + x41 + x50  = 0
 c72:  x60 + x68 + x84 + x91 + x100  = 0
 c73:  x110 + x118 + x134 + x141 + x150  = 1
 c74:  x160 + x168 + x184 + x191 + x200  = 0
 c75:  x210 + x218 + x234 + x241 + x250  = 0
 c76:  x260 + x268 + x284 + x291 + x300  = 0
 c77:  x310 + x318 + x334 + x341 + x350  = 1
 c78:  x360 + x368 + x384 + x391 + x400  = 0
 c79:  x410 + x418 + x434 + x441 + x450  = 0
 c80:  x460 + x468 + x484 + x491 + x500  = 0
 c81:  x14 - x16 + x32 - x40 - x42  = 0
 c82:  x64 - x66 + x82 - x90 - x92  = -1
 c83:  x114 - x116 + x132 - x140 - x142  = 0
 c84:  x164 - x166 + x182 - x190 - x192  = 0
 c85:  x214 - x216 + x232 - x240 - x242  = 1
 c86:  x264 - x266 + x282 - x290 - x292  = 0
 c87:  x314 - x316 + x332 - x340 - x342  = 0
 c88:  x364 - x366 + x382 - x390 - x392  = 0
 c89:  x414 - x416 + x432 - x440 - x442  = -1
 c90:  x464 - x466 + x482 - x490 - x492  = 0
 c91:  - x13 + x15 - x27 - x35  = 0
 c92:  - x63 + x65 - x77 - x85  = 0
 c93:  - x113 + x115 - x127 - x135  = -1
 c94:  - x163 + x165 - x177 - x185  = 0
 c95:  - x213 + x215 - x227 - x235  = 0
 c96:  - x263 + x265 - x277 - x285  = 0
 c97:  - x313 + x315 - x327 - x335  = 0
 c98:  - x363 + x365 - x377 - x385  = 0
 c99:  - x413 + x415 - x427 - x435  = 0
 c100: - x463 + x465 - x477 - x485  = 0
 c101: - x19 - x30 + x35 - x37 - x43  = 0
 c102: - x69 - x80 + x85 - x87 - x93  = 0
 c103: - x119 - x130 + x135 - x137 - x143  = 0
 c104: - x169 - x180 + x185 - x187 - x193  = 0
 c105: - x219 - x230 + x235 - x237 - x243  = 0
 c106: - x269 - x280 + x285 - x287 - x293  = 0
 c107: - x319 - x330 + x335 - x337 - x343  = 0
 c108: - x369 - x380 + x385 - x387 - x393  = 0
 c109: - x419 - x430 + x435 - x437 - x443  = 0
 c110: - x469 - x480 + x485 - x487 - x493  = 0
 c111: - x3 - x10 + x16 + x17 - x20 - x21 + x45  = 1
 c112: - x53 - x60 + x66 + x67 - x70 - x71 + x95  = 0
 c113: - x103 - x110 + x116 + x117 - x120 - x121 + x145  = 0
 c114: - x153 - x160 + x166 + x167 - x170 - x171 + x195  = 0
 c115: - x203 - x210 + x216 + x217 - x220 - x221 + x245  = 0
 c116: - x253 - x260 + x266 + x267 - x270 - x271 + x295  = 0
 c117: - x303 - x310 + x316 + x317 - x320 - x321 + x345  = 0
 c118: - x353 - x360 + x366 + x367 - x370 - x371 + x395  = 0
 c119: - x403 - x410 + x416 + x417 - x420 - x421 + x445  = 0
 c120: - x453 - x460 + x466 + x467 - x470 - x471 + x495  = -1
 c121: - x8 - x11 + x22 + x33 - x36 + x48  = 0
 c122: - x58 - x61 + x72 + x83 - x86 + x98  = 0
 c123: - x108 - x111 + x122 + x133 - x136 + x148  = 0
 c124: - x158 - x161 + x172 + x183 - x186 + x198  = 0
 c125: - x208 - x211 + x222 + x233 - x236 + x248  = 0
 c126: - x258 - x261 + x272 + x283 - x286 + x298  = 0
 c127: - x308 - x311 + x322 + x333 - x336 + x348  = 0
 c128: - x358 - x361 + x372 + x383 - x386 + x398  = 0
 c129: - x408 - x411 + x422 + x433 - x436 + x448  = 0
 c130: - x458 - x461 + x472 + x483 - x486 + x498  = 0
 c131: x1 - x6 + x12 - x29 + x37 + x42  = 0
 c132: x51 - x56 + x62 - x79 + x87 + x92  = 0
 c133: x101 - x106 + x112 - x129 + x137 + x142  = 0
 c134: x151 - x156 + x162 - x179 + x187 + x192  = 0
 c135: x201 - x206 + x212 - x229 + x237 + x242  = 0
 c136: x251 - x256 + x262 - x279 + x287 + x292  = 0
 c137: x301 - x306 + x312 - x329 + x337 + x342  = 0
 c138: x351 - x356 + x362 - x379 + x387 + x392  = 0
 c139: x401 - x406 + x412 - x429 + x437 + x442  = 0
 c140: x451 - x456 + x462 - x479 + x487 + x492  = 0
 c141: - x2 + x9 - x24 - x26 + x27 - x28 - x32 + x39 + x43 - x47  = 0
 c142: - x52 + x59 - x74 - x76 + x77 - x78 - x82 + x89 + x93 - x97  = 0
 c143: - x102 + x109 - x124 - x126 + x127 - x128 - x132 + x139 + x143 - x147
        = 0
 c144: - x152 + x159 - x174 - x176 + x177 - x178 - x182 + x189 + x193 - x197
        = -1
 c145: - x202 + x209 - x224 - x226 + x227 - x228 - x232 + x239 + x243 - x247
        = 0
 c146: - x252 + x259 - x274 - x276 + x277 - x278 - x282 + x289 + x293 - x297
        = -1
 c147: - x302 + x309 - x324 - x326 + x327 - x328 - x332 + x339 + x343 - x347
        = 0
 c148: - x352 + x359 - x374 - x376 + x377 - x378 - x382 + x389 + x393 - x397
        = 0
 c149: - x402 + x409 - x424 - x426 + x427 - x428 - x432 + x439 + x443 - x447
        = 0
 c150: - x452 + x459 - x474 - x476 + x477 - x478 - x482 + x489 + x493 - x497
        = 0
 c151: 4 x1 + 4 x51 + 4 x101 + 4 x151 + 4 x201 + 4 x251 + 4 x301 + 4 x351
       + 4 x401 + 4 x451 - 19 x501 <= 0
 c152: 4 x2 + 4 x52 + 4 x102 + 4 x152 + 4 x202 + 4 x252 + 4 x302 + 4 x352
       + 4 x402 + 4 x452 - 18 x502 <= 0
 c153: 4 x3 + 4 x53 + 4 x103 + 4 x153 + 4 x203 + 4 x253 + 4 x303 + 4 x353
       + 4 x403 + 4 x453 - 18 x503 <= 0
 c154: 4 x4 + 4 x54 + 4 x104 + 4 x154 + 4 x204 + 4 x254 + 4 x304 + 4 x354
       + 4 x404 + 4 x454 - 22 x504 <= 0
 c155: 4 x5 + 4 x55 + 4 x105 + 4 x155 + 4 x205 + 4 x255 + 4 x305 + 4 x355
       + 4 x405 + 4 x455 - 20 x505 <= 0
 c156: 4 x6 + 4 x56 + 4 x106 + 4 x156 + 4 x206 + 4 x256 + 4 x306 + 4 x356
       + 4 x406 + 4 x456 - 21 x506 <= 0
 c157: 4 x7 + 4 x57 + 4 x107 + 4 x157 + 4 x207 + 4 x257 + 4 x307 + 4 x357
       + 4 x407 + 4 x457 - 21 x507 <= 0
 c158: 4 x8 + 4 x58 + 4 x108 + 4 x158 + 4 x208 + 4 x258 + 4 x308 + 4 x358
       + 4 x408 + 4 x458 - 20 x508 <= 0
 c159: 4 x9 + 4 x59 + 4 x109 + 4 x159 + 4 x209 + 4 x259 + 4 x309 + 4 x359
       + 4 x409 + 4 x459 - 21 x509 <= 0
 c160: 4 x10 + 4 x60 + 4 x110 + 4 x160 + 4 x210 + 4 x260 + 4 x310 + 4 x360
       + 4 x410 + 4 x460 - 20 x510 <= 0
 c161: 4 x11 + 4 x61 + 4 x111 + 4 x161 + 4 x211 + 4 x261 + 4 x311 + 4 x361
       + 4 x411 + 4 x461 - 21 x511 <= 0
 c162: 4 x12 + 4 x62 + 4 x112 + 4 x162 + 4 x212 + 4 x262 + 4 x312 + 4 x362
       + 4 x412 + 4 x462 - 19 x512 <= 0
 c163: 4 x13 + 4 x63 + 4 x113 + 4 x163 + 4 x213 + 4 x263 + 4 x313 + 4 x363
       + 4 x413 + 4 x463 - 21 x513 <= 0
 c164: 4 x14 + 4 x64 + 4 x114 + 4 x164 + 4 x214 + 4 x264 + 4 x314 + 4 x364
       + 4 x414 + 4 x464 - 21 x514 <= 0
 c165: 4 x15 + 4 x65 + 4 x115 + 4 x165 + 4 x215 + 4 x265 + 4 x315 + 4 x365
       + 4 x415 + 4 x465 - 20 x515 <= 0
 c166: 4 x16 + 4 x66 + 4 x116 + 4 x166 + 4 x216 + 4 x266 + 4 x316 + 4 x366
       + 4 x416 + 4 x466 - 20 x516 <= 0
 c167: 4 x17 + 4 x67 + 4 x117 + 4 x167 + 4 x217 + 4 x267 + 4 x317 + 4 x367
       + 4 x417 + 4 x467 - 22 x517 <= 0
 c168: 4 x18 + 4 x68 + 4 x118 + 4 x168 + 4 x218 + 4 x268 + 4 x318 + 4 x368
       + 4 x418 + 4 x468 - 18 x518 <= 0
 c169: 4 x19 + 4 x69 + 4 x119 + 4 x169 + 4 x219 + 4 x269 + 4 x319 + 4 x369
       + 4 x419 + 4 x469 - 21 x519 <= 0
 c170: 4 x20 + 4 x70 + 4 x120 + 4 x170 + 4 x220 + 4 x270 + 4 x320 + 4 x370
       + 4 x420 + 4 x470 - 20 x520 <= 0
 c171: 4 x21 + 4 x71 + 4 x121 + 4 x171 + 4 x221 + 4 x271 + 4 x321 + 4 x371
       + 4 x421 + 4 x471 - 19 x521 <= 0
 c172: 4 x22 + 4 x72 + 4 x122 + 4 x172 + 4 x222 + 4 x272 + 4 x322 + 4 x372
       + 4 x422 + 4 x472 - 21 x522 <= 0
 c173: 4 x23 + 4 x73 + 4 x123 + 4 x173 + 4 x223 + 4 x273 + 4 x323 + 4 x373
       + 4 x423 + 4 x473 - 18 x523 <= 0
 c174: 4 x24 + 4 x74 + 4 x124 + 4 x174 + 4 x224 + 4 x274 + 4 x324 + 4 x374
       + 4 x424 + 4 x474 - 19 x524 <= 0
 c175: 4 x25 + 4 x75 + 4 x125 + 4 x175 + 4 x225 + 4 x275 + 4 x325 + 4 x375
       + 4 x425 + 4 x475 - 22 x525 <= 0
 c176: 4 x26 + 4 x76 + 4 x126 + 4 x176 + 4 x226 + 4 x276 + 4 x326 + 4 x376
       + 4 x426 + 4 x476 - 19 x526 <= 0
 c177: 4 x27 + 4 x77 + 4 x127 + 4 x177 + 4 x227 + 4 x277 + 4 x327 + 4 x377
       + 4 x427 + 4 x477 - 18 x527 <= 0
 c178: 4 x28 + 4 x78 + 4 x128 + 4 x178 + 4 x228 + 4 x278 + 4 x328 + 4 x378
       + 4 x428 + 4 x478 - 22 x528 <= 0
 c179: 4 x29 + 4 x79 + 4 x129 + 4 x179 + 4 x229 + 4 x279 + 4 x329 + 4 x379
       + 4 x429 + 4 x479 - 22 x529 <= 0
 c180: 4 x30 + 4 x80 + 4 x130 + 4 x180 + 4 x230 + 4 x280 + 4 x330 + 4 x380
       + 4 x430 + 4 x480 - 22 x530 <= 0
 c181: 4 x31 + 4 x81 + 4 x131 + 4 x181 + 4 x231 + 4 x281 + 4 x331 + 4 x381
       + 4 x431 + 4 x481 - 19 x531 <= 0
 c182: 4 x32 + 4 x82 + 4 x132 + 4 x182 + 4 x232 + 4 x282 + 4 x332 + 4 x382
       + 4 x432 + 4 x482 - 20 x532 <= 0
 c183: 4 x33 + 4 x83 + 4 x133 + 4 x183 + 4 x233 + 4 x283 + 4 x333 + 4 x383
       + 4 x433 + 4 x483 - 19 x533 <= 0
 c184: 4 x34 + 4 x84 + 4 x134 + 4 x184 + 4 x234 + 4 x284 + 4 x334 + 4 x384
       + 4 x434 + 4 x484 - 22 x534 <= 0
 c185: 4 x35 + 4 x85 + 4 x135 + 4 x185 + 4 x235 + 4 x285 + 4 x335 + 4 x385
       + 4 x435 + 4 x485 - 22 x535 <= 0
 c186: 4 x36 + 4 x86 + 4 x136 + 4 x186 + 4 x236 + 4 x286 + 4 x336 + 4 x386
       + 4 x436 + 4 x486 - 21 x536 <= 0
 c187: 4 x37 + 4 x87 + 4 x137 + 4 x187 + 4 x237 + 4 x287 + 4 x337 + 4 x387
       + 4 x437 + 4 x487 - 22 x537 <= 0
 c188: 4 x38 + 4 x88 + 4 x138 + 4 x188 + 4 x238 + 4 x288 + 4 x338 + 4 x388
       + 4 x438 + 4 x488 - 19 x538 <= 0
 c189: 4 x39 + 4 x89 + 4 x139 + 4 x189 + 4 x239 + 4 x289 + 4 x339 + 4 x389
       + 4 x439 + 4 x489 - 22 x539 <= 0
 c190: 4 x40 + 4 x90 + 4 x140 + 4 x190 + 4 x240 + 4 x290 + 4 x340 + 4 x390
       + 4 x440 + 4 x490 - 22 x540 <= 0
 c191: 4 x41 + 4 x91 + 4 x141 + 4 x191 + 4 x241 + 4 x291 + 4 x341 + 4 x391
       + 4 x441 + 4 x491 - 21 x541 <= 0
 c192: 4 x42 + 4 x92 + 4 x142 + 4 x192 + 4 x242 + 4 x292 + 4 x342 + 4 x392
       + 4 x442 + 4 x492 - 21 x542 <= 0
 c193: 4 x43 + 4 x93 + 4 x143 + 4 x193 + 4 x243 + 4 x293 + 4 x343 + 4 x393
       + 4 x443 + 4 x493 - 20 x543 <= 0
 c194: 4 x44 + 4 x94 + 4 x144 + 4 x194 + 4 x244 + 4 x294 + 4 x344 + 4 x394
       + 4 x444 + 4 x494 - 21 x544 <= 0
 c195: 4 x45 + 4 x95 + 4 x145 + 4 x195 + 4 x245 + 4 x295 + 4 x345 + 4 x395
       + 4 x445 + 4 x495 - 20 x545 <= 0
 c196: 4 x46 + 4 x96 + 4 x146 + 4 x196 + 4 x246 + 4 x296 + 4 x346 + 4 x396
       + 4 x446 + 4 x496 - 21 x546 <= 0
 c197: 4 x47 + 4 x97 + 4 x147 + 4 x197 + 4 x247 + 4 x297 + 4 x347 + 4 x397
       + 4 x447 + 4 x497 - 21 x547 <= 0
 c198: 4 x48 + 4 x98 + 4 x148 + 4 x198 + 4 x248 + 4 x298 + 4 x348 + 4 x398
       + 4 x448 + 4 x498 - 21 x548 <= 0
 c199: 4 x49 + 4 x99 + 4 x149 + 4 x199 + 4 x249 + 4 x299 + 4 x349 + 4 x399
       + 4 x449 + 4 x499 - 19 x549 <= 0
 c200: 4 x50 + 4 x100 + 4 x150 + 4 x200 + 4 x250 + 4 x300 + 4 x350 + 4 x400
       + 4 x450 + 4 x500 - 2 x550 <= 0
Bounds
 0 <= x1 <= 1
 0 <= x2 <= 1
 0 <= x3 <= 1
 0 <= x4 <= 1
 0 <= x5 <= 1
 0 <= x6 <= 1
 0 <= x7 <= 1
 0 <= x8 <= 1
 0 <= x9 <= 1
 0 <= x10 <= 1
 0 <= x11 <= 1
 0 <= x12 <= 1
 0 <= x13 <= 1
 0 <= x14 <= 1
 0 <= x15 <= 1
 0 <= x16 <= 1
 0 <= x17 <= 1
 0 <= x18 <= 1
 0 <= x19 <= 1
 0 <= x20 <= 1
 0 <= x21 <= 1
 0 <= x22 <= 1
 0 <= x23 <= 1
 0 <= x24 <= 1
 0 <= x25 <= 1
 0 <= x26 <= 1
 0 <= x27 <= 1
 0 <= x28 <= 1
 0 <= x29 <= 1
 0 <= x30 <= 1
 0 <= x31 <= 1
 0 <= x32 <= 1
 0 <= x33 <= 1
 0 <= x34 <= 1
 0 <= x35 <= 1
 0 <= x36 <= 1
 0 <= x37 <= 1
 0 <= x38 <= 1
 0 <= x39 <= 1
 0 <= x40 <= 1
 0 <= x41 <= 1
 0 <= x42 <= 1
 0 <= x43 <= 1
 0 <= x44 <= 1
 0 <= x45 <= 1
 0 <= x46 <= 1
 0 <= x47 <= 1
 0 <= x48 <= 1
 0 <= x49 <= 1
 0 <= x50 <= 1
 0 <= x51 <= 1
 0 <= x52 <= 1
 0 <= x53 <= 1
 0 <= x54 <= 1
 0 <= x55 <= 1
 0 <= x56 <= 1
 0 <= x57 <= 1
 0 <= x58 <= 1
 0 <= x59 <= 1
 0 <= x60 <= 1
 0 <= x61 <= 1
 0 <= x62 <= 1
 0 <= x63 <= 1
 0 <= x64 <= 1
 0 <= x65 <= 1
 0 <= x66 <= 1
 0 <= x67 <= 1
 0 <= x68 <= 1
 0 <= x69 <= 1
 0 <= x70 <= 1
 0 <= x71 <= 1
 0 <= x72 <= 1
 0 <= x73 <= 1
 0 <= x74 <= 1
 0 <= x75 <= 1
 0 <= x76 <= 1
 0 <= x77 <= 1
 0 <= x78 <= 1
 0 <= x79 <= 1
 0 <= x80 <= 1
 0 <= x81 <= 1
 0 <= x82 <= 1
 0 <= x83 <= 1
 0 <= x84 <= 1
 0 <= x85 <= 1
 0 <= x86 <= 1
 0 <= x87 <= 1
 0 <= x88 <= 1
 0 <= x89 <= 1
 0 <= x90 <= 1
 0 <= x91 <= 1
 0 <= x92 <= 1
 0 <= x93 <= 1
 0 <= x94 <= 1
 0 <= x95 <= 1
 0 <= x96 <= 1
 0 <= x97 <= 1
 0 <= x98 <= 1
 0 <= x99 <= 1
 0 <= x100 <= 1
 0 <= x101 <= 1
 0 <= x102 <= 1
 0 <= x103 <= 1
 0 <= x104 <= 1
 0 <= x105 <= 1
 0 <= x106 <= 1
 0 <= x107 <= 1
 0 <= x108 <= 1
 0 <= x109 <= 1
 0 <= x110 <= 1
 0 <= x111 <= 1
 0 <= x112 <= 1
 0 <= x113 <= 1
 0 <= x114 <= 1
 0 <= x115 <= 1
 0 <= x116 <= 1
 0 <= x117 <= 1
 0 <= x118 <= 1
 0 <= x119 <= 1
 0 <= x120 <= 1
 0 <= x121 <= 1
 0 <= x122 <= 1
 0 <= x123 <= 1
 0 <= x124 <= 1
 0 <= x125 <= 1
 0 <= x126 <= 1
 0 <= x127 <= 1
 0 <= x128 <= 1
 0 <= x129 <= 1
 0 <= x130 <= 1
 0 <= x131 <= 1
 0 <= x132 <= 1
 0 <= x133 <= 1
 0 <= x134 <= 1
 0 <= x135 <= 1
 0 <= x136 <= 1
 0 <= x137 <= 1
 0 <= x138 <= 1
 0 <= x139 <= 1
 0 <= x140 <= 1
 0 <= x141 <= 1
 0 <= x142 <= 1
 0 <= x143 <= 1
 0 <= x144 <= 1
 0 <= x145 <= 1
 0 <= x146 <= 1
 0 <= x147 <= 1
 0 <= x148 <= 1
 0 <= x149 <= 1
 0 <= x150 <= 1
 0 <= x151 <= 1
 0 <= x152 <= 1
 0 <= x153 <= 1
 0 <= x154 <= 1
 0 <= x155 <= 1
 0 <= x156 <= 1
 0 <= x157 <= 1
 0 <= x158 <= 1
 0 <= x159 <= 1
 0 <= x160 <= 1
 0 <= x161 <= 1
 0 <= x162 <= 1
 0 <= x163 <= 1
 0 <= x164 <= 1
 0 <= x165 <= 1
 0 <= x166 <= 1
 0 <= x167 <= 1
 0 <= x168 <= 1
 0 <= x169 <= 1
 0 <= x170 <= 1
 0 <= x171 <= 1
 0 <= x172 <= 1
 0 <= x173 <= 1
 0 <= x174 <= 1
 0 <= x175 <= 1
 0 <= x176 <= 1
 0 <= x177 <= 1
 0 <= x178 <= 1
 0 <= x179 <= 1
 0 <= x180 <= 1
 0 <= x181 <= 1
 0 <= x182 <= 1
 0 <= x183 <= 1
 0 <= x184 <= 1
 0 <= x185 <= 1
 0 <= x186 <= 1
 0 <= x187 <= 1
 0 <= x188 <= 1
 0 <= x189 <= 1
 0 <= x190 <= 1
 0 <= x191 <= 1
 0 <= x192 <= 1
 0 <= x193 <= 1
 0 <= x194 <= 1
 0 <= x195 <= 1
 0 <= x196 <= 1
 0 <= x197 <= 1
 0 <= x198 <= 1
 0 <= x199 <= 1
 0 <= x200 <= 1
 0 <= x201 <= 1
 0 <= x202 <= 1
 0 <= x203 <= 1
 0 <= x204 <= 1
 0 <= x205 <= 1
 0 <= x206 <= 1
 0 <= x207 <= 1
 0 <= x208 <= 1
 0 <= x209 <= 1
 0 <= x210 <= 1
 0 <= x211 <= 1
 0 <= x212 <= 1
 0 <= x213 <= 1
 0 <= x214 <= 1
 0 <= x215 <= 1
 0 <= x216 <= 1
 0 <= x217 <= 1
 0 <= x218 <= 1
 0 <= x219 <= 1
 0 <= x220 <= 1
 0 <= x221 <= 1
 0 <= x222 <= 1
 0 <= x223 <= 1
 0 <= x224 <= 1
 0 <= x225 <= 1
 0 <= x226 <= 1
 0 <= x227 <= 1
 0 <= x228 <= 1
 0 <= x229 <= 1
 0 <= x230 <= 1
 0 <= x231 <= 1
 0 <= x232 <= 1
 0 <= x233 <= 1
 0 <= x234 <= 1
 0 <= x235 <= 1
 0 <= x236 <= 1
 0 <= x237 <= 1
 0 <= x238 <= 1
 0 <= x239 <= 1
 0 <= x240 <= 1
 0 <= x241 <= 1
 0 <= x242 <= 1
 0 <= x243 <= 1
 0 <= x244 <= 1
 0 <= x245 <= 1
 0 <= x246 <= 1
 0 <= x247 <= 1
 0 <= x248 <= 1
 0 <= x249 <= 1
 0 <= x250 <= 1
 0 <= x251 <= 1
 0 <= x252 <= 1
 0 <= x253 <= 1
 0 <= x254 <= 1
 0 <= x255 <= 1
 0 <= x256 <= 1
 0 <= x257 <= 1
 0 <= x258 <= 1
 0 <= x259 <= 1
 0 <= x260 <= 1
 0 <= x261 <= 1
 0 <= x262 <= 1
 0 <= x263 <= 1
 0 <= x264 <= 1
 0 <= x265 <= 1
 0 <= x266 <= 1
 0 <= x267 <= 1
 0 <= x268 <= 1
 0 <= x269 <= 1
 0 <= x270 <= 1
 0 <= x271 <= 1
 0 <= x272 <= 1
 0 <= x273 <= 1
 0 <= x274 <= 1
 0 <= x275 <= 1
 0 <= x276 <= 1
 0 <= x277 <= 1
 0 <= x278 <= 1
 0 <= x279 <= 1
 0 <= x280 <= 1
 0 <= x281 <= 1
 0 <= x282 <= 1
 0 <= x283 <= 1
 0 <= x284 <= 1
 0 <= x285 <= 1
 0 <= x286 <= 1
 0 <= x287 <= 1
 0 <= x288 <= 1
 0 <= x289 <= 1
 0 <= x290 <= 1
 0 <= x291 <= 1
 0 <= x292 <= 1
 0 <= x293 <= 1
 0 <= x294 <= 1
 0 <= x295 <= 1
 0 <= x296 <= 1
 0 <= x297 <= 1
 0 <= x298 <= 1
 0 <= x299 <= 1
 0 <= x300 <= 1
 0 <= x301 <= 1
 0 <= x302 <= 1
 0 <= x303 <= 1
 0 <= x304 <= 1
 0 <= x305 <= 1
 0 <= x306 <= 1
 0 <= x307 <= 1
 0 <= x308 <= 1
 0 <= x309 <= 1
 0 <= x310 <= 1
 0 <= x311 <= 1
 0 <= x312 <= 1
 0 <= x313 <= 1
 0 <= x314 <= 1
 0 <= x315 <= 1
 0 <= x316 <= 1
 0 <= x317 <= 1
 0 <= x318 <= 1
 0 <= x319 <= 1
 0 <= x320 <= 1
 0 <= x321 <= 1
 0 <= x322 <= 1
 0 <= x323 <= 1
 0 <= x324 <= 1
 0 <= x325 <= 1
 0 <= x326 <= 1
 0 <= x327 <= 1
 0 <= x328 <= 1
 0 <= x329 <= 1
 0 <= x330 <= 1
 0 <= x331 <= 1
 0 <= x332 <= 1
 0 <= x333 <= 1
 0 <= x334 <= 1
 0 <= x335 <= 1
 0 <= x336 <= 1
 0 <= x337 <= 1
 0 <= x338 <= 1
 0 <= x339 <= 1
 0 <= x340 <= 1
 0 <= x341 <= 1
 0 <= x342 <= 1
 0 <= x343 <= 1
 0 <= x344 <= 1
 0 <= x345 <= 1
 0 <= x346 <= 1
 0 <= x347 <= 1
 0 <= x348 <= 1
 0 <= x349 <= 1
 0 <= x350 <= 1
 0 <= x351 <= 1
 0 <= x352 <= 1
 0 <= x353 <= 1
 0 <= x354 <= 1
 0 <= x355 <= 1
 0 <= x356 <= 1
 0 <= x357 <= 1
 0 <= x358 <= 1
 0 <= x359 <= 1
 0 <= x360 <= 1
 0 <= x361 <= 1
 0 <= x362 <= 1
 0 <= x363 <= 1
 0 <= x364 <= 1
 0 <= x365 <= 1
 0 <= x366 <= 1
 0 <= x367 <= 1
 0 <= x368 <= 1
 0 <= x369 <= 1
 0 <= x370 <= 1
 0 <= x371 <= 1
 0 <= x372 <= 1
 0 <= x373 <= 1
 0 <= x374 <= 1
 0 <= x375 <= 1
 0 <= x376 <= 1
 0 <= x377 <= 1
 0 <= x378 <= 1
 0 <= x379 <= 1
 0 <= x380 <= 1
 0 <= x381 <= 1
 0 <= x382 <= 1
 0 <= x383 <= 1
 0 <= x384 <= 1
 0 <= x385 <= 1
 0 <= x386 <= 1
 0 <= x387 <= 1
 0 <= x388 <= 1
 0 <= x389 <= 1
 0 <= x390 <= 1
 0 <= x391 <= 1
 0 <= x392 <= 1
 0 <= x393 <= 1
 0 <= x394 <= 1
 0 <= x395 <= 1
 0 <= x396 <= 1
 0 <= x397 <= 1
 0 <= x398 <= 1
 0 <= x399 <= 1
 0 <= x400 <= 1
 0 <= x401 <= 1
 0 <= x402 <= 1
 0 <= x403 <= 1
 0 <= x404 <= 1
 0 <= x405 <= 1
 0 <= x406 <= 1
 0 <= x407 <= 1
 0 <= x408 <= 1
 0 <= x409 <= 1
 0 <= x410 <= 1
 0 <= x411 <= 1
 0 <= x412 <= 1
 0 <= x413 <= 1
 0 <= x414 <= 1
 0 <= x415 <= 1
 0 <= x416 <= 1
 0 <= x417 <= 1
 0 <= x418 <= 1
 0 <= x419 <= 1
 0 <= x420 <= 1
 0 <= x421 <= 1
 0 <= x422 <= 1
 0 <= x423 <= 1
 0 <= x424 <= 1
 0 <= x425 <= 1
 0 <= x426 <= 1
 0 <= x427 <= 1
 0 <= x428 <= 1
 0 <= x429 <= 1
 0 <= x430 <= 1
 0 <= x431 <= 1
 0 <= x432 <= 1
 0 <= x433 <= 1
 0 <= x434 <= 1
 0 <= x435 <= 1
 0 <= x436 <= 1
 0 <= x437 <= 1
 0 <= x438 <= 1
 0 <= x439 <= 1
 0 <= x440 <= 1
 0 <= x441 <= 1
 0 <= x442 <= 1
 0 <= x443 <= 1
 0 <= x444 <= 1
 0 <= x445 <= 1
 0 <= x446 <= 1
 0 <= x447 <= 1
 0 <= x448 <= 1
 0 <= x449 <= 1
 0 <= x450 <= 1
 0 <= x451 <= 1
 0 <= x452 <= 1
 0 <= x453 <= 1
 0 <= x454 <= 1
 0 <= x455 <= 1
 0 <= x456 <= 1
 0 <= x457 <= 1
 0 <= x458 <= 1
 0 <= x459 <= 1
 0 <= x460 <= 1
 0 <= x461 <= 1
 0 <= x462 <= 1
 0 <= x463 <= 1
 0 <= x464 <= 1
 0 <= x465 <= 1
 0 <= x466 <= 1
 0 <= x467 <= 1
 0 <= x468 <= 1
 0 <= x469 <= 1
 0 <= x470 <= 1
 0 <= x471 <= 1
 0 <= x472 <= 1
 0 <= x473 <= 1
 0 <= x474 <= 1
 0 <= x475 <= 1
 0 <= x476 <= 1
 0 <= x477 <= 1
 0 <= x478 <= 1
 0 <= x479 <= 1
 0 <= x480 <= 1
 0 <= x481 <= 1
 0 <= x482 <= 1
 0 <= x483 <= 1
 0 <= x484 <= 1
 0 <= x485 <= 1
 0 <= x486 <= 1
 0 <= x487 <= 1
 0 <= x488 <= 1
 0 <= x489 <= 1
 0 <= x490 <= 1
 0 <= x491 <= 1
 0 <= x492 <= 1
 0 <= x493 <= 1
 0 <= x494 <= 1
 0 <= x495 <= 1
 0 <= x496 <= 1
 0 <= x497 <= 1
 0 <= x498 <= 1
 0 <= x499 <= 1
 0 <= x500 <= 1
 0 <= x501 <= 1
 0 <= x502 <= 1
 0 <= x503 <= 1
 0 <= x504 <= 1
 0 <= x505 <= 1
 0 <= x506 <= 1
 0 <= x507 <= 1
 0 <= x508 <= 1
 0 <= x509 <= 1
 0 <= x510 <= 1
 0 <= x511 <= 1
 0 <= x512 <= 1
 0 <= x513 <= 1
 0 <= x514 <= 1
 0 <= x515 <= 1
 0 <= x516 <= 1
 0 <= x517 <= 1
 0 <= x518 <= 1
 0 <= x519 <= 1
 0 <= x520 <= 1
 0 <= x521 <= 1
 0 <= x522 <= 1
 0 <= x523 <= 1
 0 <= x524 <= 1
 0 <= x525 <= 1
 0 <= x526 <= 1
 0 <= x527 <= 1
 0 <= x528 <= 1
 0 <= x529 <= 1
 0 <= x530 <= 1
 0 <= x531 <= 1
 0 <= x532 <= 1
 0 <= x533 <= 1
 0 <= x534 <= 1
 0 <= x535 <= 1
 0 <= x536 <= 1
 0 <= x537 <= 1
 0 <= x538 <= 1
 0 <= x539 <= 1
 0 <= x540 <= 1
 0 <= x541 <= 1
 0 <= x542 <= 1
 0 <= x543 <= 1
 0 <= x544 <= 1
 0 <= x545 <= 1
 0 <= x546 <= 1
 0 <= x547 <= 1
 0 <= x548 <= 1
 0 <= x549 <= 1
 0 <= x550 <= 1
Binaries
 x501  x502  x503  x504  x505  x506  x507  x508  x509  x510  x511  x512  x513 
 x514  x515  x516  x517  x518  x519  x520  x521  x522  x523  x524  x525  x526 
 x527  x528  x529  x530  x531  x532  x533  x534  x535  x536  x537  x538  x539 
 x540  x541  x542  x543  x544  x545  x546  x547  x548  x549  x550 
End
